
Gurobi 12.0.2 (win64) logging started Tue Jun 10 16:01:19 2025

Set parameter LogFile to value "C:\Ioana\_uni\honours\slp\algorithm\Main_files\results\others\neuro_2\Task_354_Sample003_irr_gurobi.log"
Gurobi Optimizer version 12.0.2 build v12.0.2rc0 (win64 - Windows 11.0 (26100.2))

CPU model: Intel(R) Core(TM) Ultra 5 125H, instruction set [SSE2|AVX|AVX2]
Thread count: 14 physical cores, 18 logical processors, using up to 18 threads

Non-default parameters:
TimeLimit  2200

Optimize a model with 47226 rows, 34494 columns and 146681 nonzeros
Model fingerprint: 0xa5c26478
Variable types: 17249 continuous, 17245 integer (17245 binary)
Coefficient statistics:
  Matrix range     [1e-04, 8e+04]
  Objective range  [1e-04, 1e+00]
  Bounds range     [1e+00, 1e+03]
  RHS range        [1e+00, 1e+00]
Found heuristic solution: objective 0.8771930
Presolve removed 37685 rows and 26894 columns
Presolve time: 0.43s
Presolved: 9541 rows, 7600 columns, 29765 nonzeros
Variable types: 3768 continuous, 3832 integer (3832 binary)

Root relaxation: objective 1.291289e-04, 2434 iterations, 0.08 seconds (0.21 work units)

    Nodes    |    Current Node    |     Objective Bounds      |     Work
 Expl Unexpl |  Obj  Depth IntInf | Incumbent    BestBd   Gap | It/Node Time

     0     0    0.00013    0    2    0.87719    0.00013   100%     -    0s
H    0     0                       0.1291289    0.00013   100%     -    0s
     0     0    0.12714    0    1    0.12913    0.12714  1.54%     -    0s

Cutting planes:
  Cover: 1
  Relax-and-lift: 1

Explored 1 nodes (2441 simplex iterations) in 0.64 seconds (0.71 work units)
Thread count was 18 (of 18 available processors)

Solution count 2: 0.129129 0.877193 

Optimal solution found (tolerance 1.00e-04)
Best objective 1.291289398682e-01, best bound 1.291289398682e-01, gap 0.0000%
